*<meta creator='lp_solve v5.5'>
*<meta rows=2>
*<meta columns=5>
*<meta equalities=1>
*<meta integers=0>
*<meta origsense='MAX'>
*
NAME                  
ROWS
 N  R0      
 G  R1      
 E  R2      
COLUMNS
    C1        R0        -2.000000000   R1        0.5000000000
    C1        R2        1.0000000000
    C2        R0        -3.000000000   R1        4.0000000000
    C2        R2        2.0000000000
    C3        R0        2.0000000000   R1        3.0000000000
    C3        R2        1.0000000000
    C4        R0        -3.000000000   R1        1.0000000000
    C4        R2        4.0000000000
    c5        R0        -3.000000000   R1        2.0000000000
    c5        R2        2.0000000000
RHS
    RHS       R1        3.0000000000   R2        8.0000000000
BOUNDS
 LO BND       C2        2.0000000000
 UP BND       C4        5.3000000000
ENDATA
